assets/logs/13_8x8_clingo/13_8x8_clingo.solution.log

---------------------------------
|  2|  8|  1| 33| 39| 20| 15| 16|
---------------------------------
| 52| 35|  4| 10| 13| 14| 29| 22|
---------------------------------
|  6| 49| 50| 37| 31| 41| 18| 17|
---------------------------------
| 48| 54| 45| 11| 12|  0| 24| 27|
---------------------------------
| 47| 36| 51|  1| 43|  9| 19|  5|
---------------------------------
| 56| 46|  1| 38|  1|  3| 25| 26|
---------------------------------
| 34| 53| 42|  1| 30| 57|  7| 21|
---------------------------------
| 44| 58| 32| 55| 40| 23| 28| 59|
---------------------------------

| n = 8 | k = 5 | coverage = 63, 98.4375%
 Time 300.002
 Name 13_8x8_clingo

